unknown
(model
; cardinality of BoundSet is 3
(declare-sort BoundSet 0)
; rep: @uc_BoundSet_0
; rep: @uc_BoundSet_1
; rep: @uc_BoundSet_2
; cardinality of UnboundSet is 1
(declare-sort UnboundSet 0)
(declare-fun groundTerm_4 () UnboundSet)
(define-fun IsRedDog ((BOUND_VARIABLE_453 BoundSet)) Bool true)
(define-fun Jumps ((BOUND_VARIABLE_453 BoundSet)) Bool true)
(define-fun Catches ((BOUND_VARIABLE_460 BoundSet) (BOUND_VARIABLE_461 BoundSet)) Bool true)
(define-fun IsInMouth ((BOUND_VARIABLE_460 BoundSet) (BOUND_VARIABLE_461 BoundSet)) Bool true)
(define-fun IsDog ((BOUND_VARIABLE_453 BoundSet)) Bool false)
)
sat
(model
; cardinality of BoundSet is 1
(declare-sort BoundSet 0)
; rep: @uc_BoundSet_0
; cardinality of UnboundSet is 1
(declare-sort UnboundSet 0)
(declare-fun groundTerm_6 () UnboundSet)
(define-fun IsRedDog ((BOUND_VARIABLE_474 BoundSet)) Bool true)
(define-fun Jumps ((BOUND_VARIABLE_474 BoundSet)) Bool true)
(define-fun Catches ((BOUND_VARIABLE_481 BoundSet) (BOUND_VARIABLE_482 BoundSet)) Bool true)
(define-fun IsInMouth ((BOUND_VARIABLE_481 BoundSet) (BOUND_VARIABLE_482 BoundSet)) Bool true)
(define-fun IsDog ((BOUND_VARIABLE_474 BoundSet)) Bool false)
)
